detailed-output/inst-21-2073674354.dzn

A = 3;
T = 12;
X = 3;
Y = 3;
Z = 3;
building = array2d(0..2, 0..2, [0, 0, 0, 0, 1, 0, 0, 0, 0]);
