submission_experiments/submission_essence_discrim/detailed-output/inst-21-2073674354.param
language Essence 1.3

letting class be
        function(1 --> 1, 2 --> 1, 3 --> 3, 4 --> 3, 5 --> 3, 6 --> 1, 7 --> 1, 8 --> 2, 9 --> 1, 10 --> 3, 11 --> 2,
                 12 --> 3, 13 --> 3, 14 --> 1, 15 --> 2, 16 --> 3, 17 --> 1, 18 --> 1, 19 --> 1)
letting deck_length be 19
letting deck_width be 24
letting length be
        function(1 --> 16, 2 --> 2, 3 --> 1, 4 --> 1, 5 --> 1, 6 --> 1, 7 --> 1, 8 --> 1, 9 --> 1, 10 --> 1, 11 --> 1,
                 12 --> 1, 13 --> 1, 14 --> 1, 15 --> 1, 16 --> 1, 17 --> 1, 18 --> 1, 19 --> 1)
letting n_classes be 3
letting n_containers be 19
letting separation be function({1, 2} --> 9, {1, 3} --> 12, {2, 3} --> 20)
letting width be
        function(1 --> 10, 2 --> 2, 3 --> 1, 4 --> 1, 5 --> 2, 6 --> 1, 7 --> 1, 8 --> 1, 9 --> 1, 10 --> 1, 11 --> 1,
                 12 --> 1, 13 --> 1, 14 --> 1, 15 --> 1, 16 --> 1, 17 --> 1, 18 --> 1, 19 --> 1)
